(set-logic HORN)
(declare-fun state (Int Int Int Int (Array Int Int) Bool Int (Array Int Int) Int (Array Int Int) Bool Int Int (Array Int Int) Int (Array Int Int) Int (Array Int Int) Bool Bool Bool Int Int) Bool)
(assert (forall ((|T_4| Int) (|A_6| Int) (|W_3| Int) (|Y_2| Int) (|J_5| (Array Int Int)) (|I_5| Bool) (|M_5| Int) (|L_5| (Array Int Int)) (|E_5| Int) (|B_6| (Array Int Int)) (|.y.22| Bool) (|.y.23| Int) (|.y.24| Int) (|.y.25| (Array Int Int)) (|.y.26| Int) (|.y.27| (Array Int Int)) (|.y.28| Int) (|.y.29| (Array Int Int)) (|.loc.30| Bool) (|.loc.31| Bool) (|.loc.32| Bool) (|D_5| Int) (|C1_2| Int) (|.loc.53| Bool) (|.y.39| Int) (|.y.34| Int) (|.y.35| Int) (|.y.36| Int) (|.y.38| Bool) (|.y.33| Int) (|.y.41| Int) (|.loc.51| Bool) (|.y.44| Int) (|.y.47| Int) (|.y.49| Int) (|.y.50| (Array Int Int)) (|.y.48| (Array Int Int)) (|.y.42| (Array Int Int)) (|.y.37| (Array Int Int)) (|.y.40| (Array Int Int)) (|.loc.52| Bool) (|.y.43| Bool) (|.y.45| Int) (|.y.46| (Array Int Int)) (|.xtv.1| Int) (|.xtv.2| Int)) (=> (and (and (not .loc.30) (not .loc.31)) (not .loc.32)) (state |T_4| |A_6| |W_3| |Y_2| |J_5| |I_5| |M_5| |L_5| |E_5| |B_6| |.y.22| |.y.23| |.y.24| |.y.25| |.y.26| |.y.27| |.y.28| |.y.29| |.loc.30| |.loc.31| |.loc.32| |D_5| |C1_2|))))
(assert (forall ((|T_4| Int) (|A_6| Int) (|W_3| Int) (|Y_2| Int) (|J_5| (Array Int Int)) (|I_5| Bool) (|M_5| Int) (|L_5| (Array Int Int)) (|E_5| Int) (|B_6| (Array Int Int)) (|.y.22| Bool) (|.y.23| Int) (|.y.24| Int) (|.y.25| (Array Int Int)) (|.y.26| Int) (|.y.27| (Array Int Int)) (|.y.28| Int) (|.y.29| (Array Int Int)) (|.loc.30| Bool) (|.loc.31| Bool) (|.loc.32| Bool) (|D_5| Int) (|C1_2| Int) (|.loc.53| Bool) (|.y.39| Int) (|.y.34| Int) (|.y.35| Int) (|.y.36| Int) (|.y.38| Bool) (|.y.33| Int) (|.y.41| Int) (|.loc.51| Bool) (|.y.44| Int) (|.y.47| Int) (|.y.49| Int) (|.y.50| (Array Int Int)) (|.y.48| (Array Int Int)) (|.y.42| (Array Int Int)) (|.y.37| (Array Int Int)) (|.y.40| (Array Int Int)) (|.loc.52| Bool) (|.y.43| Bool) (|.y.45| Int) (|.y.46| (Array Int Int)) (|.xtv.1| Int) (|.xtv.2| Int)) (=> (and (state |T_4| |A_6| |W_3| |Y_2| |J_5| |I_5| |M_5| |L_5| |E_5| |B_6| |.y.22| |.y.23| |.y.24| |.y.25| |.y.26| |.y.27| |.y.28| |.y.29| |.loc.30| |.loc.31| |.loc.32| |D_5| |C1_2|) (let ((.def_33 (not .loc.30))) (let ((.def_34 (not .loc.31))) (let ((.def_36 (not .loc.32))) (let ((.def_40 (not (= T_4 0)))) (let ((.def_45 (store B_6 (+ W_3 (* 4 E_5)) D_5))) (let ((.def_50 (select L_5 Y_2))) (let ((.def_54 (<= W_3 0))) (let ((.def_55 (not .def_54))) (let ((.def_56 (and I_5 .def_55))) (let ((.def_59 (or .def_54 (not (<= (+ W_3 (* 4 E_5)) 0))))) (let ((.def_62 (not (<= 0 T_4)))) (let ((.def_66 (not (<= (+ T_4 (* (- 1) E_5)) 1)))) (let ((.def_68 (<= (- 1) E_5))) (let ((.def_70 (or (or .def_62 .def_66) (not .def_68)))) (let ((.def_72 (or .def_68 (and .def_62 .def_66)))) (let ((.def_74 (not (and .def_70 .def_72)))) (let ((.def_77 (not (= M_5 C1_2)))) (let ((.def_84 (store .y.25 (+ Y_2 (* 4 .y.24)) D_5))) (let ((.def_95 (not (= .y.23 C1_2)))) (let ((.def_99 (<= Y_2 0))) (let ((.def_100 (or (not (<= (+ Y_2 (* 4 .y.24)) 0)) .def_99))) (let ((.def_105 (not (<= (+ T_4 (* (- 1) .y.24)) 1)))) (let ((.def_107 (<= (- 1) .y.24))) (let ((.def_108 (or (and .def_62 .def_105) .def_107))) (let ((.def_111 (or (not .def_107) (or .def_62 .def_105)))) (let ((.def_113 (not (and .def_108 .def_111)))) (let ((.def_115 (not .def_99))) (let ((.def_123 (and .loc.30 (and .def_74 (and .def_55 .def_59))))) (let ((.def_132 (store B_6 (+ A_6 (* 4 E_5)) (+ (select L_5 (+ Y_2 (* 4 E_5))) (select J_5 (+ W_3 (* 4 E_5))))))) (let ((.def_135 (not (= D_5 (select .def_132 A_6))))) (let ((.def_139 (or .def_99 (not (<= (+ Y_2 (* 4 E_5)) 0))))) (let ((.def_143 (<= A_6 0))) (let ((.def_144 (or (not (<= (+ A_6 (* 4 E_5)) 0)) .def_143))) (let ((.def_146 (not .def_143))) (let ((.def_150 (and .loc.32 .def_34))) (let ((.def_158 (<= .y.28 0))) (let ((.def_159 (or (not (<= (+ (* 4 M_5) .y.28) (- 4))) .def_158))) (let ((.def_163 (not (<= (- 1) (+ M_5 (* (- 1) E_5)))))) (let ((.def_165 (not (<= 0 E_5)))) (let ((.def_167 (<= (- 1) M_5))) (let ((.def_168 (or (and .def_163 .def_165) .def_167))) (let ((.def_172 (or (not .def_167) (or .def_163 .def_165)))) (let ((.def_174 (not I_5))) (let ((.def_180 (<= .y.26 0))) (let ((.def_181 (or (not (<= (+ (* 4 M_5) .y.26) (- 4))) .def_180))) (let ((.def_187 (<= .y.23 0))) (let ((.def_188 (or (not (<= (+ (* 4 M_5) .y.23) (- 4))) .def_187))) (let ((.def_205 (not (= (+ (select .y.25 (+ (+ (* 4 M_5) .y.23) 4)) (+ (* (- 1) (select .y.27 (+ (+ (* 4 M_5) .y.26) 4))) (select .y.29 (+ (+ (* 4 M_5) .y.28) 4)))) 0)))) (let ((.def_207 (not .def_158))) (let ((.def_209 (not .def_187))) (let ((.def_211 (not .def_180))) (let ((.def_232 (and .def_34 .def_36))) (let ((.def_234 (not .loc.53))) (let ((.def_237 (= .y.41 0))) (let ((.def_272 (not .loc.51))) (let ((.def_277 (= .y.39 0))) (let ((.def_290 (and .loc.30 (and .def_59 (and .def_72 (and .def_55 .def_70)))))) (let ((.def_298 (= (+ E_5 (* (- 1) .y.41)) (- 1)))) (let ((.def_300 (= T_4 .y.33))) (let ((.def_302 (= A_6 .y.34))) (let ((.def_304 (= W_3 .y.35))) (let ((.def_306 (= Y_2 .y.36))) (let ((.def_309 (= J_5 .y.37))) (let ((.def_314 (= L_5 .y.40))) (let ((.def_318 (not .loc.52))) (let ((.def_340 (= L_5 .y.46))) (let ((.def_369 (= (+ C1_2 (+ (select .y.50 Y_2) (* (- 1) (select .y.48 W_3)))) 0))) (let ((.def_371 (= L_5 .y.50))) (let ((.def_375 (= T_4 .y.41))) (let ((.def_377 (= A_6 .y.44))) (let ((.def_379 (= W_3 .y.47))) (let ((.def_381 (= Y_2 .y.49))) (let ((.def_389 (and .loc.31 .def_36))) (let ((.def_407 (= .y.23 .y.44))) (let ((.def_451 (= J_5 .y.48))) (or (or (or (or (or (or (or (or (and (or (or (and (or (and (or (and (and .def_36 .def_40) (or (or (and .def_34 (and .loc.30 (and (= (+ C1_2 (+ (* (- 1) (select .def_45 W_3)) .def_50)) 0) (and (and (and .def_56 .def_59) .def_74) .def_77)))) (and (and (and (and (and (= (+ C1_2 (+ (select .def_84 Y_2) (* (- 1) (select J_5 W_3)))) 0) (and .def_33 (and .y.22 .loc.31))) .def_95) .def_100) .def_113) .def_115)) (and (and (and (and (and (= (+ D_5 (+ .def_50 (* (- 1) (select J_5 W_3)))) 0) (and .def_115 (and .loc.31 .def_123))) .def_135) .def_139) .def_144) .def_146))) (and (and (and (and (and (and (and (and (and (and (and .def_33 .def_150) .def_159) .def_168) .def_172) .def_174) .def_181) .def_188) .def_205) .def_207) .def_209) .def_211)) .loc.53) (and (= T_4 .y.39) (and (not (<= .y.34 0)) (and (not (<= .y.35 0)) (and (not (<= .y.36 0)) (and (not .y.38) (and (= .y.38 (= .y.33 0)) (and (and (and .def_33 .def_232) .def_234) .def_237)))))))) .loc.51) (and (not (<= .y.44 0)) (and (not (<= .y.47 0)) (and (not (<= .y.49 0)) (and (and (not .def_237) (and (= (+ D_5 (+ (select .y.50 .y.49) (* (- 1) (select .y.48 .y.47)))) 0) (and (= .y.38 (not (= T_4 D_5))) (and (and .def_237 (and .def_33 (and .loc.53 .def_232))) .def_272)))) .def_277))))) (and (and (= M_5 .y.39) (and (= I_5 .y.38) (and (and (and (and (and (and (and (= .def_45 .y.42) (and .def_234 (and .loc.51 (and .def_36 (and .def_34 .def_290))))) .def_298) .def_300) .def_302) .def_304) .def_306) .def_309))) .def_314)) .def_318) (and (= M_5 .y.44) (and (= I_5 .y.43) (and (= J_5 .y.40) (and (and (= .y.45 0) (and (= .def_45 .y.37) (and .def_306 (and .def_304 (and .def_302 (and .def_300 (and .def_272 (and .def_234 (and .def_174 (and .loc.52 (and .def_36 (and .def_34 .def_123)))))))))))) .def_340))))) (and (and (and (and (and (= J_5 .y.46) (and (= .def_45 .y.48) (and (and (and (= .def_77 .y.38) (and .def_277 (and .def_272 (and .def_318 (and .loc.53 (and .def_36 (and .def_34 (and .loc.30 (and .def_74 (and .def_59 (and .def_40 .def_56))))))))))) .def_369) .def_371))) .def_375) .def_377) .def_379) .def_381)) (and (and (= .y.22 .y.43) (and (= (+ .y.24 (* (- 1) .y.45)) (- 1)) (and (= .def_84 .y.46) (and .def_314 (and .def_309 (and .def_306 (and .def_304 (and .def_302 (and .def_300 (and .def_272 (and .def_234 (and .def_115 (and .def_111 (and .def_108 (and .def_100 (and .def_33 (and .loc.52 .def_389))))))))))))))))) .def_407)) (and (not .y.22) (and (= L_5 .y.42) (and (= .def_84 .y.40) (and .def_309 (and .def_306 (and .def_304 (and .def_302 (and .def_300 (and .def_237 (and .def_234 (and .def_115 (and .def_113 (and .def_100 (and .def_33 (and .loc.52 (and .loc.51 .def_389))))))))))))))))) (and (and (= .def_84 .y.50) (and (= .def_95 .y.38) (and .def_381 (and .def_379 (and .def_377 (and .def_375 (and .def_369 (and .def_340 (and .def_277 (and .def_272 (and .def_115 (and .def_113 (and .def_100 (and .def_33 (and .def_318 (and .loc.53 (and .def_36 (and .loc.31 (and .y.22 .def_40))))))))))))))))))) .def_451)) (and (= .def_132 .y.42) (and .def_314 (and .def_309 (and .def_306 (and .def_304 (and .def_302 (and .def_300 (and .def_298 (and .def_234 (and .def_146 (and .def_144 (and .def_139 (and .def_115 (and .loc.52 (and .loc.51 (and .def_36 (and .loc.31 .def_290)))))))))))))))))) (and (= .def_132 .y.46) (and (= (+ D_5 (+ (select .y.50 Y_2) (* (- 1) (select .y.48 W_3)))) 0) (and (= .def_135 .y.38) (and .def_451 (and .def_381 (and .def_379 (and .def_377 (and .def_375 (and .def_371 (and .def_277 (and .def_272 (and .def_146 (and .def_144 (and .def_139 (and .def_115 (and .def_318 (and .loc.53 (and .def_36 (and .loc.31 (and .loc.30 (and .def_74 (and .def_59 (and .def_40 .def_55)))))))))))))))))))))))) (and (= .y.29 .y.50) (and (= .y.28 .y.49) (and (= .y.27 .y.48) (and (= .y.26 .y.47) (and (= .y.25 .y.46) (and (= E_5 .y.41) (and (= (+ M_5 (* (- 1) .y.39)) (- 1)) (and (= .def_205 .y.38) (and .def_407 (and .def_272 (and .def_211 (and .def_209 (and .def_207 (and .def_188 (and .def_181 (and .def_174 (and .def_172 (and .def_168 (and .def_159 (and .def_33 (and .def_318 (and .def_150 .loc.53))))))))))))))))))))))))))))))))))))))))))))))))))))))))))))))))))))))))))))))))))))))))))))))))))) (state |.y.33| |.y.34| |.y.35| |.y.36| |.y.37| |.y.38| |.y.39| |.y.40| |.y.41| |.y.42| |.y.43| |.y.44| |.y.45| |.y.46| |.y.47| |.y.48| |.y.49| |.y.50| |.loc.51| |.loc.52| |.loc.53| |.xtv.1| |.xtv.2|))))
(assert (forall ((|T_4| Int) (|A_6| Int) (|W_3| Int) (|Y_2| Int) (|J_5| (Array Int Int)) (|I_5| Bool) (|M_5| Int) (|L_5| (Array Int Int)) (|E_5| Int) (|B_6| (Array Int Int)) (|.y.22| Bool) (|.y.23| Int) (|.y.24| Int) (|.y.25| (Array Int Int)) (|.y.26| Int) (|.y.27| (Array Int Int)) (|.y.28| Int) (|.y.29| (Array Int Int)) (|.loc.30| Bool) (|.loc.31| Bool) (|.loc.32| Bool) (|D_5| Int) (|C1_2| Int) (|.loc.53| Bool) (|.y.39| Int) (|.y.34| Int) (|.y.35| Int) (|.y.36| Int) (|.y.38| Bool) (|.y.33| Int) (|.y.41| Int) (|.loc.51| Bool) (|.y.44| Int) (|.y.47| Int) (|.y.49| Int) (|.y.50| (Array Int Int)) (|.y.48| (Array Int Int)) (|.y.42| (Array Int Int)) (|.y.37| (Array Int Int)) (|.y.40| (Array Int Int)) (|.loc.52| Bool) (|.y.43| Bool) (|.y.45| Int) (|.y.46| (Array Int Int)) (|.xtv.1| Int) (|.xtv.2| Int)) (=> (state |T_4| |A_6| |W_3| |Y_2| |J_5| |I_5| |M_5| |L_5| |E_5| |B_6| |.y.22| |.y.23| |.y.24| |.y.25| |.y.26| |.y.27| |.y.28| |.y.29| |.loc.30| |.loc.31| |.loc.32| |D_5| |C1_2|) (not (and .loc.32 (and .loc.30 (not .loc.31)))))))
(check-sat)
